(set-logic QF_LIA)
(set-info :ran/ran2.smt2)
(set-info :smt-lib-version 2.0)
(declare-fun x1 () Int)
(declare-fun x2 () Int)
(declare-fun x3 () Int)
(declare-fun x4 () Int)
(assert (<= (+ (* 8 x1) (* (- 8) x2) (* (- 1) x3) (* (- 2) x4) ) 20))
(assert (<= (+ (* 3 x1) (* (- 10) x2) (* (- 2) x3) (* 9 x4) ) (- 2)))
(assert (<= (+ (* (- 2) x1) (* (- 9) x2) (* 4 x3) (* 0 x4) ) (- 29)))
(assert (<= (+ (* 9 x1) (* (- 6) x2) (* (- 2) x3) (* 0 x4) ) 10))
(assert (<= (+ (* (- 7) x1) (* 9 x2) (* 10 x3) (* 8 x4) ) 3))
(assert (<= (+ (* 2 x1) (* 4 x2) (* 4 x3) (* 1 x4) ) (- 10)))
(assert (<= (+ (* (- 10) x1) (* (- 2) x2) (* 2 x3) (* 0 x4) ) 26))
(assert (<= (+ (* (- 9) x1) (* (- 8) x2) (* 5 x3) (* (- 3) x4) ) (- 26)))
(assert (<= (+ (* 1 x1) (* 0 x2) (* 0 x3) (* 0 x4) ) 44))
(assert (<= (+ (* (- 1) x1) (* 0 x2) (* 0 x3) (* 0 x4) ) 44))
(assert (<= (+ (* 0 x1) (* 1 x2) (* 0 x3) (* 0 x4) ) 44))
(assert (<= (+ (* 0 x1) (* (- 1) x2) (* 0 x3) (* 0 x4) ) 44))
(assert (<= (+ (* 0 x1) (* 0 x2) (* 1 x3) (* 0 x4) ) 44))
(assert (<= (+ (* 0 x1) (* 0 x2) (* (- 1) x3) (* 0 x4) ) 44))
(assert (<= (+ (* 0 x1) (* 0 x2) (* 0 x3) (* 1 x4) ) 44))
(assert (<= (+ (* 0 x1) (* 0 x2) (* 0 x3) (* (- 1) x4) ) 44))
